0
6
5
8
13
17
20
24
22
22
22
24
22
23
22
20
21
25
25
23
24
24
23
23
22
21
26
27
27
27
27
26
26
26
26
26
26
28
28
28
28
28
28
29
29
30
30
30
30
30
30
30
30
30
30
30
30
30
30
30
30
30
30
31
31
33
33
33
33
33
33
33
33
33
34
34
34
34
34
34
34
34
34
32
32
32
32
32
32
32
32
32
32
32
32
32
32
32
32
32
32
